4 
5  46 
6  01 16 35 42 50 57 
7  05 12 20 27 35 42 50 57 
8  05 12 20 27 35 42 50 57 
9  05 12 27 42 57 
10  12 27 42 57 
11  12 27 42 57 
12  12 27 42 58 
13  13 28 43 58 
14  13 28 43 58 
15  05 13 21 28 36 43 51 58 
16  06 13 21 28 36 43 51 58 
17  06 13 21 28 36 43 51 58 
18  06 13 21 28 35 43 58 
19  12 27 42 57 
20  12 27 42 54 
21  09 24 39 54 
22  09 24 37 52 
23  08 23 
0 
